NAME: concorde11
TYPE: TSP
COMMENT: Generated by CCutil_writetsplib
COMMENT: Write called for by Concorde GUI
DIMENSION: 11
EDGE_WEIGHT_TYPE: EUC_2D
NODE_COORD_SECTION
1 20.016340 84.599156
2 20.343137 72.573840
3 14.215686 46.835443
4 11.192810 63.502110
5 27.369281 54.008439
6 39.869281 73.839662
7 48.202614 38.396624
8 89.460784 83.966245
9 78.022876 29.746835
10 53.104575 68.354430
11 63.888889 61.814346
